50, 11631
475, 446
658, 630
667, 705
143, 178
11, 13
375, 322
275, 248
811, 813
691, 753
602, 602
559, 464
662, 727
146, 132
441, 445
163, 107
906, 891
59, 62
819, 874
75, 18
687, 697
337, 272
405, 444
843, 750
19, 33
61, 56
916, 944
509, 419
91, 88
988, 929
947, 903
113, 108
424, 516
136, 132
313, 405
622, 555
164, 249
697, 670
52, 29
172, 222
816, 899
401, 302
419, 372
596, 650
477, 445
385, 333
31, 2
727, 635
968, 992
977, 1074
664, 764
